% File represents an instance of a Composite Structure problem to be solved by a CP framework
% Created on 2025-03-26 10:41:26.809
T = 52;
n = 16;
m = 24;
edges = [(2, 1),
(6, 5),
(9, 10),
(13, 14),
(3, 2),
(7, 6),
(11, 10),
(14, 15),
(4, 3),
(8, 7),
(12, 11),
(16, 15),
(5, 1),
(9, 5),
(13, 9),
(6, 2),
(6, 10),
(14, 10),
(7, 3),
(7, 11),
(11, 15),
(8, 4),
(8, 12),
(12, 16)];
counts = [|16, 2, 16, 2,
|18, 2, 18, 2,
|20, 2, 20, 4,
|20, 4, 20, 6,
|18, 2, 18, 4,
|20, 2, 20, 4,
|20, 2, 20, 6,
|20, 6, 20, 6,
|18, 4, 18, 4,
|18, 2, 18, 2,
|20, 2, 20, 4,
|20, 2, 20, 6,
|18, 4, 18, 6,
|18, 2, 18, 4,
|18, 2, 18, 2,
|18, 2, 18, 4|];
